/*********************************************
 * OPL 12.7.1.0 Data
 * Author: liyuanyuan
 * Creation Date: 27 nov. 2017 at 17:34:03
 *********************************************/

Sommets={"sommet1","sommet2","sommet3","sommet4","sommet5","sommet6","sommet7","sommet8"};
 Couleur={"couleur1","couleur2"};
 NbCouleur=2;
 Arcs=[[0,1,0,0,1,0,0,1],
 [ 1,0,1,0,0 1,1,0],
 [ 0,0,0,1,0,1,0,1],
 [ 0,1,0,0,1,0,0,1]
  [0,1,0,1,0,1,1,1],
  [1,1,0,0,1,0,0,0],
  [1,0,0,1,1,0,0,1],
  [0,0,1,1,0,1,0,0]];